\ENCODING=ISO-8859-1
\Problem name: ilog.cplex

Minimize
 obj1: 104926 x1 + 90981 x2 + 104399 x3 + 95185 x4 + 107428 x5 + 98032 x6
       + 95311 x7 + 96101 x8 + 92878 x9 + 99433 x10 + 97396 x11 + 97474 x12
       + 102712 x13 + 106277 x14 + 98321 x15 + 91951 x16 + 105047 x17
       + 98587 x18 + 108709 x19 + 103650 x20 + 90070 x21 + 106475 x22
       + 108199 x23 + 90419 x24 + 90075 x25 + 93269 x26 + 102253 x27
       + 108725 x28 + 101279 x29 + 91729 x30 + 94255 x31 + 97602 x32
       + 95779 x33 + 97767 x34 + 104039 x35 + 99226 x36 + 98949 x37
       + 100038 x38 + 96166 x39 + 105415 x40 + 90062 x41 + 98282 x42
       + 99140 x43 + 101709 x44 + 102094 x45 + 98511 x46 + 100160 x47
       + 93685 x48 + 90399 x49 + 108915 x50 + 96781 x51 + 100391 x52
       + 101001 x53 + 101347 x54 + 103788 x55 + 100736 x56 + 91281 x57
       + 102074 x58 + 94713 x59 + 98720 x60 + 90655 x61 + 104544 x62
       + 92858 x63 + 101245 x64 + 90911 x65 + 93376 x66 + 94480 x67
       + 101091 x68 + 102996 x69 + 90634 x70 + 94016 x71 + 101659 x72
       + 91401 x73 + 96561 x74 + 92081 x75 + 93718 x76 + 90535 x77 + 107587 x78
       + 99046 x79 + 93008 x80 + 102780 x81 + 108402 x82 + 108378 x83
       + 107282 x84 + 97121 x85 + 104856 x86 + 96020 x87 + 106688 x88
       + 97123 x89 + 90123 x90 + 104743 x91 + 102334 x92 + 107518 x93
       + 97831 x94 + 95703 x95 + 94499 x96 + 99767 x97 + 92730 x98 + 93375 x99
       + 94120 x100 + 109053 x101 + 104794 x102 + 98692 x103 + 97380 x104
       + 100021 x105 + 109280 x106 + 91544 x107 + 91925 x108 + 90296 x109
       + 93609 x110 + 96924 x111 + 100684 x112 + 97816 x113 + 108133 x114
       + 101000 x115 + 103926 x116 + 108815 x117 + 100449 x118 + 93024 x119
       + 92858 x120 + 107967 x121 + 108989 x122 + 95814 x123 + 101732 x124
       + 101650 x125 + 93635 x126 + 101723 x127 + 98936 x128 + 98134 x129
       + 101880 x130 + 99864 x131 + 106714 x132 + 101316 x133 + 106418 x134
       + 93490 x135 + 109303 x136 + 93122 x137 + 98025 x138 + 95233 x139
       + 100078 x140 + 103722 x141 + 96219 x142 + 92254 x143 + 109732 x144
       + 98461 x145 + 109410 x146 + 93412 x147 + 109568 x148 + 105712 x149
       + 96126 x150 + 109392 x151 + 102413 x152 + 100807 x153 + 107907 x154
       + 107437 x155 + 98557 x156 + 107658 x157 + 93467 x158 + 105654 x159
       + 99264 x160 + 105856 x161 + 103579 x162 + 107108 x163 + 90427 x164
       + 102576 x165 + 99965 x166 + 101847 x167 + 102323 x168 + 106568 x169
       + 99230 x170 + 108924 x171 + 92453 x172 + 94748 x173 + 94325 x174
       + 109242 x175 + 102877 x176 + 95317 x177 + 97604 x178 + 102214 x179
       + 107429 x180 + 98043 x181 + 100799 x182 + 94719 x183 + 100464 x184
       + 100681 x185 + 98823 x186 + 96944 x187 + 90726 x188 + 99399 x189
       + 101528 x190 + 96429 x191 + 91387 x192 + 90650 x193 + 100347 x194
       + 109026 x195 + 100502 x196 + 92089 x197 + 105251 x198 + 103441 x199
       + 104863 x200 + 94648 x201 + 109741 x202 + 95268 x203 + 100726 x204
       + 106264 x205 + 101060 x206 + 103086 x207 + 107480 x208 + 96440 x209
       + 106226 x210 + 109864 x211 + 105778 x212 + 91900 x213 + 95456 x214
       + 98284 x215 + 97552 x216 + 95818 x217 + 91460 x218 + 93406 x219
       + 108230 x220 + 104803 x221 + 102756 x222 + 94738 x223 + 95678 x224
       + 98285 x225 + 98228 x226 + 101297 x227 + 108763 x228 + 105960 x229
       + 100244 x230 + 94329 x231 + 92200 x232 + 98338 x233 + 100077 x234
       + 107013 x235 + 98662 x236 + 100447 x237 + 106405 x238 + 100857 x239
       + 103922 x240 + 99419 x241 + 105385 x242 + 104407 x243 + 106333 x244
       + 102921 x245 + 99040 x246 + 91499 x247 + 108046 x248 + 107314 x249
       + 97670 x250 + 91534 x251 + 92717 x252 + 106934 x253 + 108974 x254
       + 97209 x255 + 102905 x256 + 97672 x257 + 107455 x258 + 104860 x259
       + 106336 x260 + 102533 x261 + 93687 x262 + 104065 x263 + 107267 x264
       + 101451 x265 + 91235 x266 + 97890 x267 + 96462 x268 + 104288 x269
       + 98581 x270 + 107589 x271 + 102603 x272 + 96253 x273 + 94175 x274
       + 103603 x275 + 92987 x276 + 99370 x277 + 105389 x278 + 92465 x279
       + 108080 x280 + 90532 x281 + 100438 x282 + 103751 x283 + 92343 x284
       + 99046 x285 + 100441 x286 + 96407 x287 + 107220 x288 + 99582 x289
       + 102595 x290 + 99585 x291 + 101230 x292 + 100023 x293 + 94831 x294
       + 99542 x295 + 106825 x296 + 97984 x297 + 107296 x298 + 101190 x299
       + 94028 x300 + 96783 x301 + 109653 x302 + 95931 x303 + 103034 x304
       + 99568 x305 + 108399 x306 + 92714 x307 + 99974 x308 + 108995 x309
       + 106791 x310 + 109724 x311 + 98291 x312 + 97996 x313 + 109673 x314
       + 100285 x315 + 94689 x316 + 98596 x317 + 94097 x318 + 93715 x319
       + 109528 x320 + 93413 x321 + 98738 x322 + 98176 x323 + 95447 x324
       + 95689 x325 + 99540 x326 + 99082 x327 + 98322 x328 + 93003 x329
       + 91639 x330 + 106754 x331 + 100728 x332 + 100791 x333 + 98041 x334
       + 108255 x335 + 101398 x336 + 108345 x337 + 96707 x338 + 95256 x339
       + 108096 x340 + 102198 x341 + 99380 x342 + 92286 x343 + 105857 x344
       + 99626 x345 + 107893 x346 + 97883 x347 + 107749 x348 + 98458 x349
       + 96664 x350 + 103700 x351 + 105698 x352 + 108410 x353 + 94178 x354
       + 96680 x355 + 102755 x356 + 109854 x357 + 109895 x358 + 95538 x359
       + 96279 x360 + 100631 x361 + 102349 x362 + 98462 x363 + 106188 x364
       + 106396 x365 + 99699 x366 + 94336 x367 + 108077 x368 + 107586 x369
       + 91395 x370 + 91397 x371 + 100177 x372 + 93684 x373 + 96985 x374
       + 109229 x375 + 91440 x376 + 98434 x377 + 100166 x378 + 109211 x379
       + 99703 x380 + 97854 x381 + 108517 x382 + 97163 x383 + 93249 x384
       + 104333 x385 + 109046 x386 + 101141 x387 + 109114 x388 + 102113 x389
       + 105009 x390 + 107229 x391 + 97122 x392 + 102177 x393 + 100420 x394
       + 106640 x395 + 109917 x396 + 107816 x397 + 105273 x398 + 108567 x399
       + 106139 x400 + 96425 x401 + 95242 x402 + 108867 x403 + 95665 x404
       + 100040 x405 + 92081 x406 + 108878 x407 + 95797 x408 + 93742 x409
       + 101681 x410 + 102971 x411 + 109878 x412 + 103850 x413 + 104967 x414
       + 94590 x415 + 92730 x416 + 97522 x417 + 99390 x418 + 94187 x419
       + 100995 x420 + 109888 x421 + 104257 x422 + 107575 x423 + 95128 x424
       + 99957 x425 + 100996 x426 + 100963 x427 + 97688 x428 + 100102 x429
       + 107456 x430 + 108049 x431 + 90505 x432 + 91456 x433 + 104942 x434
       + 107344 x435 + 100666 x436 + 100696 x437 + 96848 x438 + 106415 x439
       + 103252 x440 + 92455 x441 + 98527 x442 + 103759 x443 + 97363 x444
       + 105998 x445 + 99503 x446 + 98766 x447 + 91220 x448 + 94826 x449
       + 101144 x450 + 95627 x451 + 97348 x452 + 96446 x453 + 97321 x454
       + 95279 x455 + 104905 x456 + 109766 x457 + 97122 x458 + 105357 x459
       + 94194 x460 + 101364 x461 + 104522 x462 + 97849 x463 + 97009 x464
       + 99199 x465 + 90403 x466 + 109046 x467 + 101121 x468 + 106825 x469
       + 103734 x470 + 109471 x471 + 105945 x472 + 101174 x473 + 96962 x474
       + 101143 x475 + 94302 x476 + 93245 x477 + 99290 x478 + 104219 x479
       + 101211 x480 + 98744 x481 + 109807 x482 + 102736 x483 + 96610 x484
       + 91230 x485 + 108700 x486 + 107467 x487 + 100462 x488 + 106412 x489
       + 106659 x490 + 102834 x491 + 95943 x492 + 92981 x493 + 90128 x494
       + 94382 x495 + 99212 x496 + 102750 x497 + 93186 x498 + 103468 x499
       - 25006 x500 + 42865 x501 + 43323 x502 + 40398 x503 + 40582 x504
       + 38348 x505 + 40244 x506 + 38860 x507 + 37384 x508 + 37906 x509
       + 43637 x510 + 36529 x511 + 41753 x512 + 36398 x513 + 40114 x514
       + 41095 x515 + 37020 x516 + 43922 x517 + 43969 x518 + 39200 x519
       + 41455 x520 + 39413 x521 + 40118 x522 + 39674 x523 + 37976 x524
       + 38880 x525 + 43962 x526 + 39018 x527 + 39293 x528 + 38060 x529
       + 43123 x530 + 41907 x531 + 42419 x532 + 39484 x533 + 42668 x534
       + 41090 x535 + 41476 x536 + 36874 x537 + 42763 x538 + 41381 x539
       + 37507 x540 + 41522 x541 + 39889 x542 + 41483 x543 + 36483 x544
       + 43696 x545 + 43596 x546 + 37231 x547 + 41977 x548 + 39364 x549
       + 22671 x550
Subject To
 c1:   x5 - x13 - x31 + x36  = 0
 c2:   x55 - x63 - x81 + x86  = 0
 c3:   x105 - x113 - x131 + x136  = 0
 c4:   x155 - x163 - x181 + x186  = -1
 c5:   x205 - x213 - x231 + x236  = 0
 c6:   x255 - x263 - x281 + x286  = 0
 c7:   x305 - x313 - x331 + x336  = -1
 c8:   x355 - x363 - x381 + x386  = 0
 c9:   x405 - x413 - x431 + x436  = 0
 c10:  x455 - x463 - x481 + x486  = 0
 c11:  - x6 + x8 + x13 + x44 - x47  = 0
 c12:  - x56 + x58 + x63 + x94 - x97  = 0
 c13:  - x106 + x108 + x113 + x144 - x147  = 0
 c14:  - x156 + x158 + x163 + x194 - x197  = 0
 c15:  - x206 + x208 + x213 + x244 - x247  = 0
 c16:  - x256 + x258 + x263 + x294 - x297  = -1
 c17:  - x306 + x308 + x313 + x344 - x347  = 0
 c18:  - x356 + x358 + x363 + x394 - x397  = 0
 c19:  - x406 + x408 + x413 + x444 - x447  = 0
 c20:  - x456 + x458 + x463 + x494 - x497  = 0
 c21:  - x11 - x24 + x40 + x43 - x46  = 0
 c22:  - x61 - x74 + x90 + x93 - x96  = 0
 c23:  - x111 - x124 + x140 + x143 - x146  = 0
 c24:  - x161 - x174 + x190 + x193 - x196  = 0
 c25:  - x211 - x224 + x240 + x243 - x246  = 0
 c26:  - x261 - x274 + x290 + x293 - x296  = 0
 c27:  - x311 - x324 + x340 + x343 - x346  = 0
 c28:  - x361 - x374 + x390 + x393 - x396  = 0
 c29:  - x411 - x424 + x440 + x443 - x446  = 0
 c30:  - x461 - x474 + x490 + x493 - x496  = -1
 c31:  - x1 + x2 + x11 - x14 - x23 - x37 - x38  = 0
 c32:  - x51 + x52 + x61 - x64 - x73 - x87 - x88  = 0
 c33:  - x101 + x102 + x111 - x114 - x123 - x137 - x138  = -1
 c34:  - x151 + x152 + x161 - x164 - x173 - x187 - x188  = 0
 c35:  - x201 + x202 + x211 - x214 - x223 - x237 - x238  = 0
 c36:  - x251 + x252 + x261 - x264 - x273 - x287 - x288  = 0
 c37:  - x301 + x302 + x311 - x314 - x323 - x337 - x338  = 0
 c38:  - x351 + x352 + x361 - x364 - x373 - x387 - x388  = 0
 c39:  - x401 + x402 + x411 - x414 - x423 - x437 - x438  = 0
 c40:  - x451 + x452 + x461 - x464 - x473 - x487 - x488  = 0
 c41:  x1 - x10 - x16 - x19 + x28 - x41 - x44  = 0
 c42:  x51 - x60 - x66 - x69 + x78 - x91 - x94  = 0
 c43:  x101 - x110 - x116 - x119 + x128 - x141 - x144  = 0
 c44:  x151 - x160 - x166 - x169 + x178 - x191 - x194  = 1
 c45:  x201 - x210 - x216 - x219 + x228 - x241 - x244  = 0
 c46:  x251 - x260 - x266 - x269 + x278 - x291 - x294  = 0
 c47:  x301 - x310 - x316 - x319 + x328 - x341 - x344  = 0
 c48:  x351 - x360 - x366 - x369 + x378 - x391 - x394  = 0
 c49:  x401 - x410 - x416 - x419 + x428 - x441 - x444  = 0
 c50:  x451 - x460 - x466 - x469 + x478 - x491 - x494  = 0
 c51:  x6 - x9 - x12 + x17 - x18 - x28 - x33 + x39 - x43 + x50  = 0
 c52:  x56 - x59 - x62 + x67 - x68 - x78 - x83 + x89 - x93 + x100  = 0
 c53:  x106 - x109 - x112 + x117 - x118 - x128 - x133 + x139 - x143 + x150  = 0
 c54:  x156 - x159 - x162 + x167 - x168 - x178 - x183 + x189 - x193 + x200  = 0
 c55:  x206 - x209 - x212 + x217 - x218 - x228 - x233 + x239 - x243 + x250  = 0
 c56:  x256 - x259 - x262 + x267 - x268 - x278 - x283 + x289 - x293 + x300  = 0
 c57:  x306 - x309 - x312 + x317 - x318 - x328 - x333 + x339 - x343 + x350  = 0
 c58:  x356 - x359 - x362 + x367 - x368 - x378 - x383 + x389 - x393 + x400  = 0
 c59:  x406 - x409 - x412 + x417 - x418 - x428 - x433 + x439 - x443 + x450  = 0
 c60:  x456 - x459 - x462 + x467 - x468 - x478 - x483 + x489 - x493 + x500  = 0
 c61:  - x2 + x14 + x25 - x26 + x33 + x35 - x40 + x46  = 0
 c62:  - x52 + x64 + x75 - x76 + x83 + x85 - x90 + x96  = 0
 c63:  - x102 + x114 + x125 - x126 + x133 + x135 - x140 + x146  = 0
 c64:  - x152 + x164 + x175 - x176 + x183 + x185 - x190 + x196  = 0
 c65:  - x202 + x214 + x225 - x226 + x233 + x235 - x240 + x246  = 0
 c66:  - x252 + x264 + x275 - x276 + x283 + x285 - x290 + x296  = 0
 c67:  - x302 + x314 + x325 - x326 + x333 + x335 - x340 + x346  = 0
 c68:  - x352 + x364 + x375 - x376 + x383 + x385 - x390 + x396  = 0
 c69:  - x402 + x414 + x425 - x426 + x433 + x435 - x440 + x446  = 0
 c70:  - x452 + x464 + x475 - x476 + x483 + x485 - x490 + x496  = 0
 c71:  x4 + x18 + x26 - x29 - x39 + x41 - x45 + x47 + x48  = 0
 c72:  x54 + x68 + x76 - x79 - x89 + x91 - x95 + x97 + x98  = 0
 c73:  x104 + x118 + x126 - x129 - x139 + x141 - x145 + x147 + x148  = 0
 c74:  x154 + x168 + x176 - x179 - x189 + x191 - x195 + x197 + x198  = 0
 c75:  x204 + x218 + x226 - x229 - x239 + x241 - x245 + x247 + x248  = 0
 c76:  x254 + x268 + x276 - x279 - x289 + x291 - x295 + x297 + x298  = 0
 c77:  x304 + x318 + x326 - x329 - x339 + x341 - x345 + x347 + x348  = 0
 c78:  x354 + x368 + x376 - x379 - x389 + x391 - x395 + x397 + x398  = 0
 c79:  x404 + x418 + x426 - x429 - x439 + x441 - x445 + x447 + x448  = 0
 c80:  x454 + x468 + x476 - x479 - x489 + x491 - x495 + x497 + x498  = 0
 c81:  - x3 - x8 + x16 + x24 + x27 - x48  = 1
 c82:  - x53 - x58 + x66 + x74 + x77 - x98  = 0
 c83:  - x103 - x108 + x116 + x124 + x127 - x148  = 0
 c84:  - x153 - x158 + x166 + x174 + x177 - x198  = 0
 c85:  - x203 - x208 + x216 + x224 + x227 - x248  = 1
 c86:  - x253 - x258 + x266 + x274 + x277 - x298  = 0
 c87:  - x303 - x308 + x316 + x324 + x327 - x348  = 0
 c88:  - x353 - x358 + x366 + x374 + x377 - x398  = 1
 c89:  - x403 - x408 + x416 + x424 + x427 - x448  = 0
 c90:  - x453 - x458 + x466 + x474 + x477 - x498  = 1
 c91:  x9 + x10 - x15 - x22 + x23 + x29 - x35  = 0
 c92:  x59 + x60 - x65 - x72 + x73 + x79 - x85  = 0
 c93:  x109 + x110 - x115 - x122 + x123 + x129 - x135  = 1
 c94:  x159 + x160 - x165 - x172 + x173 + x179 - x185  = 0
 c95:  x209 + x210 - x215 - x222 + x223 + x229 - x235  = 0
 c96:  x259 + x260 - x265 - x272 + x273 + x279 - x285  = 1
 c97:  x309 + x310 - x315 - x322 + x323 + x329 - x335  = 0
 c98:  x359 + x360 - x365 - x372 + x373 + x379 - x385  = 0
 c99:  x409 + x410 - x415 - x422 + x423 + x429 - x435  = 0
 c100: x459 + x460 - x465 - x472 + x473 + x479 - x485  = 0
 c101: x7 + x19 + x20 + x22 - x25 + x38  = 0
 c102: x57 + x69 + x70 + x72 - x75 + x88  = 1
 c103: x107 + x119 + x120 + x122 - x125 + x138  = 0
 c104: x157 + x169 + x170 + x172 - x175 + x188  = 0
 c105: x207 + x219 + x220 + x222 - x225 + x238  = -1
 c106: x257 + x269 + x270 + x272 - x275 + x288  = 0
 c107: x307 + x319 + x320 + x322 - x325 + x338  = 0
 c108: x357 + x369 + x370 + x372 - x375 + x388  = 0
 c109: x407 + x419 + x420 + x422 - x425 + x438  = 0
 c110: x457 + x469 + x470 + x472 - x475 + x488  = 0
 c111: - x20 - x27 - x32 - x34 + x45 + x49  = 0
 c112: - x70 - x77 - x82 - x84 + x95 + x99  = 0
 c113: - x120 - x127 - x132 - x134 + x145 + x149  = 0
 c114: - x170 - x177 - x182 - x184 + x195 + x199  = 0
 c115: - x220 - x227 - x232 - x234 + x245 + x249  = 0
 c116: - x270 - x277 - x282 - x284 + x295 + x299  = 0
 c117: - x320 - x327 - x332 - x334 + x345 + x349  = 0
 c118: - x370 - x377 - x382 - x384 + x395 + x399  = 0
 c119: - x420 - x427 - x432 - x434 + x445 + x449  = -1
 c120: - x470 - x477 - x482 - x484 + x495 + x499  = 0
 c121: - x4 - x21 - x36 + x42 - x49 - x50  = 0
 c122: - x54 - x71 - x86 + x92 - x99 - x100  = 0
 c123: - x104 - x121 - x136 + x142 - x149 - x150  = 0
 c124: - x154 - x171 - x186 + x192 - x199 - x200  = 0
 c125: - x204 - x221 - x236 + x242 - x249 - x250  = 0
 c126: - x254 - x271 - x286 + x292 - x299 - x300  = 0
 c127: - x304 - x321 - x336 + x342 - x349 - x350  = 1
 c128: - x354 - x371 - x386 + x392 - x399 - x400  = 0
 c129: - x404 - x421 - x436 + x442 - x449 - x450  = 1
 c130: - x454 - x471 - x486 + x492 - x499 - x500  = 0
 c131: x3 - x7 - x17 + x21 + x30 + x32 + x37 - x42  = -1
 c132: x53 - x57 - x67 + x71 + x80 + x82 + x87 - x92  = 0
 c133: x103 - x107 - x117 + x121 + x130 + x132 + x137 - x142  = 0
 c134: x153 - x157 - x167 + x171 + x180 + x182 + x187 - x192  = 0
 c135: x203 - x207 - x217 + x221 + x230 + x232 + x237 - x242  = 0
 c136: x253 - x257 - x267 + x271 + x280 + x282 + x287 - x292  = 0
 c137: x303 - x307 - x317 + x321 + x330 + x332 + x337 - x342  = 0
 c138: x353 - x357 - x367 + x371 + x380 + x382 + x387 - x392  = -1
 c139: x403 - x407 - x417 + x421 + x430 + x432 + x437 - x442  = 0
 c140: x453 - x457 - x467 + x471 + x480 + x482 + x487 - x492  = 0
 c141: - x5 + x12 + x15 - x30 + x31 + x34  = 0
 c142: - x55 + x62 + x65 - x80 + x81 + x84  = -1
 c143: - x105 + x112 + x115 - x130 + x131 + x134  = 0
 c144: - x155 + x162 + x165 - x180 + x181 + x184  = 0
 c145: - x205 + x212 + x215 - x230 + x231 + x234  = 0
 c146: - x255 + x262 + x265 - x280 + x281 + x284  = 0
 c147: - x305 + x312 + x315 - x330 + x331 + x334  = 0
 c148: - x355 + x362 + x365 - x380 + x381 + x384  = 0
 c149: - x405 + x412 + x415 - x430 + x431 + x434  = 0
 c150: - x455 + x462 + x465 - x480 + x481 + x484  = 0
 c151: 4 x1 + 4 x51 + 4 x101 + 4 x151 + 4 x201 + 4 x251 + 4 x301 + 4 x351
       + 4 x401 + 4 x451 - 19 x501 <= 0
 c152: 4 x2 + 4 x52 + 4 x102 + 4 x152 + 4 x202 + 4 x252 + 4 x302 + 4 x352
       + 4 x402 + 4 x452 - 21 x502 <= 0
 c153: 4 x3 + 4 x53 + 4 x103 + 4 x153 + 4 x203 + 4 x253 + 4 x303 + 4 x353
       + 4 x403 + 4 x453 - 22 x503 <= 0
 c154: 4 x4 + 4 x54 + 4 x104 + 4 x154 + 4 x204 + 4 x254 + 4 x304 + 4 x354
       + 4 x404 + 4 x454 - 20 x504 <= 0
 c155: 4 x5 + 4 x55 + 4 x105 + 4 x155 + 4 x205 + 4 x255 + 4 x305 + 4 x355
       + 4 x405 + 4 x455 - 21 x505 <= 0
 c156: 4 x6 + 4 x56 + 4 x106 + 4 x156 + 4 x206 + 4 x256 + 4 x306 + 4 x356
       + 4 x406 + 4 x456 - 22 x506 <= 0
 c157: 4 x7 + 4 x57 + 4 x107 + 4 x157 + 4 x207 + 4 x257 + 4 x307 + 4 x357
       + 4 x407 + 4 x457 - 19 x507 <= 0
 c158: 4 x8 + 4 x58 + 4 x108 + 4 x158 + 4 x208 + 4 x258 + 4 x308 + 4 x358
       + 4 x408 + 4 x458 - 21 x508 <= 0
 c159: 4 x9 + 4 x59 + 4 x109 + 4 x159 + 4 x209 + 4 x259 + 4 x309 + 4 x359
       + 4 x409 + 4 x459 - 20 x509 <= 0
 c160: 4 x10 + 4 x60 + 4 x110 + 4 x160 + 4 x210 + 4 x260 + 4 x310 + 4 x360
       + 4 x410 + 4 x460 - 20 x510 <= 0
 c161: 4 x11 + 4 x61 + 4 x111 + 4 x161 + 4 x211 + 4 x261 + 4 x311 + 4 x361
       + 4 x411 + 4 x461 - 19 x511 <= 0
 c162: 4 x12 + 4 x62 + 4 x112 + 4 x162 + 4 x212 + 4 x262 + 4 x312 + 4 x362
       + 4 x412 + 4 x462 - 20 x512 <= 0
 c163: 4 x13 + 4 x63 + 4 x113 + 4 x163 + 4 x213 + 4 x263 + 4 x313 + 4 x363
       + 4 x413 + 4 x463 - 21 x513 <= 0
 c164: 4 x14 + 4 x64 + 4 x114 + 4 x164 + 4 x214 + 4 x264 + 4 x314 + 4 x364
       + 4 x414 + 4 x464 - 18 x514 <= 0
 c165: 4 x15 + 4 x65 + 4 x115 + 4 x165 + 4 x215 + 4 x265 + 4 x315 + 4 x365
       + 4 x415 + 4 x465 - 20 x515 <= 0
 c166: 4 x16 + 4 x66 + 4 x116 + 4 x166 + 4 x216 + 4 x266 + 4 x316 + 4 x366
       + 4 x416 + 4 x466 - 22 x516 <= 0
 c167: 4 x17 + 4 x67 + 4 x117 + 4 x167 + 4 x217 + 4 x267 + 4 x317 + 4 x367
       + 4 x417 + 4 x467 - 20 x517 <= 0
 c168: 4 x18 + 4 x68 + 4 x118 + 4 x168 + 4 x218 + 4 x268 + 4 x318 + 4 x368
       + 4 x418 + 4 x468 - 21 x518 <= 0
 c169: 4 x19 + 4 x69 + 4 x119 + 4 x169 + 4 x219 + 4 x269 + 4 x319 + 4 x369
       + 4 x419 + 4 x469 - 22 x519 <= 0
 c170: 4 x20 + 4 x70 + 4 x120 + 4 x170 + 4 x220 + 4 x270 + 4 x320 + 4 x370
       + 4 x420 + 4 x470 - 19 x520 <= 0
 c171: 4 x21 + 4 x71 + 4 x121 + 4 x171 + 4 x221 + 4 x271 + 4 x321 + 4 x371
       + 4 x421 + 4 x471 - 22 x521 <= 0
 c172: 4 x22 + 4 x72 + 4 x122 + 4 x172 + 4 x222 + 4 x272 + 4 x322 + 4 x372
       + 4 x422 + 4 x472 - 22 x522 <= 0
 c173: 4 x23 + 4 x73 + 4 x123 + 4 x173 + 4 x223 + 4 x273 + 4 x323 + 4 x373
       + 4 x423 + 4 x473 - 18 x523 <= 0
 c174: 4 x24 + 4 x74 + 4 x124 + 4 x174 + 4 x224 + 4 x274 + 4 x324 + 4 x374
       + 4 x424 + 4 x474 - 20 x524 <= 0
 c175: 4 x25 + 4 x75 + 4 x125 + 4 x175 + 4 x225 + 4 x275 + 4 x325 + 4 x375
       + 4 x425 + 4 x475 - 21 x525 <= 0
 c176: 4 x26 + 4 x76 + 4 x126 + 4 x176 + 4 x226 + 4 x276 + 4 x326 + 4 x376
       + 4 x426 + 4 x476 - 21 x526 <= 0
 c177: 4 x27 + 4 x77 + 4 x127 + 4 x177 + 4 x227 + 4 x277 + 4 x327 + 4 x377
       + 4 x427 + 4 x477 - 21 x527 <= 0
 c178: 4 x28 + 4 x78 + 4 x128 + 4 x178 + 4 x228 + 4 x278 + 4 x328 + 4 x378
       + 4 x428 + 4 x478 - 20 x528 <= 0
 c179: 4 x29 + 4 x79 + 4 x129 + 4 x179 + 4 x229 + 4 x279 + 4 x329 + 4 x379
       + 4 x429 + 4 x479 - 18 x529 <= 0
 c180: 4 x30 + 4 x80 + 4 x130 + 4 x180 + 4 x230 + 4 x280 + 4 x330 + 4 x380
       + 4 x430 + 4 x480 - 21 x530 <= 0
 c181: 4 x31 + 4 x81 + 4 x131 + 4 x181 + 4 x231 + 4 x281 + 4 x331 + 4 x381
       + 4 x431 + 4 x481 - 21 x531 <= 0
 c182: 4 x32 + 4 x82 + 4 x132 + 4 x182 + 4 x232 + 4 x282 + 4 x332 + 4 x382
       + 4 x432 + 4 x482 - 18 x532 <= 0
 c183: 4 x33 + 4 x83 + 4 x133 + 4 x183 + 4 x233 + 4 x283 + 4 x333 + 4 x383
       + 4 x433 + 4 x483 - 21 x533 <= 0
 c184: 4 x34 + 4 x84 + 4 x134 + 4 x184 + 4 x234 + 4 x284 + 4 x334 + 4 x384
       + 4 x434 + 4 x484 - 19 x534 <= 0
 c185: 4 x35 + 4 x85 + 4 x135 + 4 x185 + 4 x235 + 4 x285 + 4 x335 + 4 x385
       + 4 x435 + 4 x485 - 19 x535 <= 0
 c186: 4 x36 + 4 x86 + 4 x136 + 4 x186 + 4 x236 + 4 x286 + 4 x336 + 4 x386
       + 4 x436 + 4 x486 - 18 x536 <= 0
 c187: 4 x37 + 4 x87 + 4 x137 + 4 x187 + 4 x237 + 4 x287 + 4 x337 + 4 x387
       + 4 x437 + 4 x487 - 18 x537 <= 0
 c188: 4 x38 + 4 x88 + 4 x138 + 4 x188 + 4 x238 + 4 x288 + 4 x338 + 4 x388
       + 4 x438 + 4 x488 - 20 x538 <= 0
 c189: 4 x39 + 4 x89 + 4 x139 + 4 x189 + 4 x239 + 4 x289 + 4 x339 + 4 x389
       + 4 x439 + 4 x489 - 19 x539 <= 0
 c190: 4 x40 + 4 x90 + 4 x140 + 4 x190 + 4 x240 + 4 x290 + 4 x340 + 4 x390
       + 4 x440 + 4 x490 - 19 x540 <= 0
 c191: 4 x41 + 4 x91 + 4 x141 + 4 x191 + 4 x241 + 4 x291 + 4 x341 + 4 x391
       + 4 x441 + 4 x491 - 19 x541 <= 0
 c192: 4 x42 + 4 x92 + 4 x142 + 4 x192 + 4 x242 + 4 x292 + 4 x342 + 4 x392
       + 4 x442 + 4 x492 - 21 x542 <= 0
 c193: 4 x43 + 4 x93 + 4 x143 + 4 x193 + 4 x243 + 4 x293 + 4 x343 + 4 x393
       + 4 x443 + 4 x493 - 21 x543 <= 0
 c194: 4 x44 + 4 x94 + 4 x144 + 4 x194 + 4 x244 + 4 x294 + 4 x344 + 4 x394
       + 4 x444 + 4 x494 - 20 x544 <= 0
 c195: 4 x45 + 4 x95 + 4 x145 + 4 x195 + 4 x245 + 4 x295 + 4 x345 + 4 x395
       + 4 x445 + 4 x495 - 21 x545 <= 0
 c196: 4 x46 + 4 x96 + 4 x146 + 4 x196 + 4 x246 + 4 x296 + 4 x346 + 4 x396
       + 4 x446 + 4 x496 - 18 x546 <= 0
 c197: 4 x47 + 4 x97 + 4 x147 + 4 x197 + 4 x247 + 4 x297 + 4 x347 + 4 x397
       + 4 x447 + 4 x497 - 21 x547 <= 0
 c198: 4 x48 + 4 x98 + 4 x148 + 4 x198 + 4 x248 + 4 x298 + 4 x348 + 4 x398
       + 4 x448 + 4 x498 - 18 x548 <= 0
 c199: 4 x49 + 4 x99 + 4 x149 + 4 x199 + 4 x249 + 4 x299 + 4 x349 + 4 x399
       + 4 x449 + 4 x499 - 20 x549 <= 0
 c200: 4 x50 + 4 x100 + 4 x150 + 4 x200 + 4 x250 + 4 x300 + 4 x350 + 4 x400
       + 4 x450 + 4 x500 - 18 x550 <= 0
Bounds
 0 <= x1 <= 1
 0 <= x2 <= 1
 0 <= x3 <= 1
 0 <= x4 <= 1
 0 <= x5 <= 1
 0 <= x6 <= 1
 0 <= x7 <= 1
 0 <= x8 <= 1
 0 <= x9 <= 1
 0 <= x10 <= 1
 0 <= x11 <= 1
 0 <= x12 <= 1
 0 <= x13 <= 1
 0 <= x14 <= 1
 0 <= x15 <= 1
 0 <= x16 <= 1
 0 <= x17 <= 1
 0 <= x18 <= 1
 0 <= x19 <= 1
 0 <= x20 <= 1
 0 <= x21 <= 1
 0 <= x22 <= 1
 0 <= x23 <= 1
 0 <= x24 <= 1
 0 <= x25 <= 1
 0 <= x26 <= 1
 0 <= x27 <= 1
 0 <= x28 <= 1
 0 <= x29 <= 1
 0 <= x30 <= 1
 0 <= x31 <= 1
 0 <= x32 <= 1
 0 <= x33 <= 1
 0 <= x34 <= 1
 0 <= x35 <= 1
 0 <= x36 <= 1
 0 <= x37 <= 1
 0 <= x38 <= 1
 0 <= x39 <= 1
 0 <= x40 <= 1
 0 <= x41 <= 1
 0 <= x42 <= 1
 0 <= x43 <= 1
 0 <= x44 <= 1
 0 <= x45 <= 1
 0 <= x46 <= 1
 0 <= x47 <= 1
 0 <= x48 <= 1
 0 <= x49 <= 1
 0 <= x50 <= 1
 0 <= x51 <= 1
 0 <= x52 <= 1
 0 <= x53 <= 1
 0 <= x54 <= 1
 0 <= x55 <= 1
 0 <= x56 <= 1
 0 <= x57 <= 1
 0 <= x58 <= 1
 0 <= x59 <= 1
 0 <= x60 <= 1
 0 <= x61 <= 1
 0 <= x62 <= 1
 0 <= x63 <= 1
 0 <= x64 <= 1
 0 <= x65 <= 1
 0 <= x66 <= 1
 0 <= x67 <= 1
 0 <= x68 <= 1
 0 <= x69 <= 1
 0 <= x70 <= 1
 0 <= x71 <= 1
 0 <= x72 <= 1
 0 <= x73 <= 1
 0 <= x74 <= 1
 0 <= x75 <= 1
 0 <= x76 <= 1
 0 <= x77 <= 1
 0 <= x78 <= 1
 0 <= x79 <= 1
 0 <= x80 <= 1
 0 <= x81 <= 1
 0 <= x82 <= 1
 0 <= x83 <= 1
 0 <= x84 <= 1
 0 <= x85 <= 1
 0 <= x86 <= 1
 0 <= x87 <= 1
 0 <= x88 <= 1
 0 <= x89 <= 1
 0 <= x90 <= 1
 0 <= x91 <= 1
 0 <= x92 <= 1
 0 <= x93 <= 1
 0 <= x94 <= 1
 0 <= x95 <= 1
 0 <= x96 <= 1
 0 <= x97 <= 1
 0 <= x98 <= 1
 0 <= x99 <= 1
 0 <= x100 <= 1
 0 <= x101 <= 1
 0 <= x102 <= 1
 0 <= x103 <= 1
 0 <= x104 <= 1
 0 <= x105 <= 1
 0 <= x106 <= 1
 0 <= x107 <= 1
 0 <= x108 <= 1
 0 <= x109 <= 1
 0 <= x110 <= 1
 0 <= x111 <= 1
 0 <= x112 <= 1
 0 <= x113 <= 1
 0 <= x114 <= 1
 0 <= x115 <= 1
 0 <= x116 <= 1
 0 <= x117 <= 1
 0 <= x118 <= 1
 0 <= x119 <= 1
 0 <= x120 <= 1
 0 <= x121 <= 1
 0 <= x122 <= 1
 0 <= x123 <= 1
 0 <= x124 <= 1
 0 <= x125 <= 1
 0 <= x126 <= 1
 0 <= x127 <= 1
 0 <= x128 <= 1
 0 <= x129 <= 1
 0 <= x130 <= 1
 0 <= x131 <= 1
 0 <= x132 <= 1
 0 <= x133 <= 1
 0 <= x134 <= 1
 0 <= x135 <= 1
 0 <= x136 <= 1
 0 <= x137 <= 1
 0 <= x138 <= 1
 0 <= x139 <= 1
 0 <= x140 <= 1
 0 <= x141 <= 1
 0 <= x142 <= 1
 0 <= x143 <= 1
 0 <= x144 <= 1
 0 <= x145 <= 1
 0 <= x146 <= 1
 0 <= x147 <= 1
 0 <= x148 <= 1
 0 <= x149 <= 1
 0 <= x150 <= 1
 0 <= x151 <= 1
 0 <= x152 <= 1
 0 <= x153 <= 1
 0 <= x154 <= 1
 0 <= x155 <= 1
 0 <= x156 <= 1
 0 <= x157 <= 1
 0 <= x158 <= 1
 0 <= x159 <= 1
 0 <= x160 <= 1
 0 <= x161 <= 1
 0 <= x162 <= 1
 0 <= x163 <= 1
 0 <= x164 <= 1
 0 <= x165 <= 1
 0 <= x166 <= 1
 0 <= x167 <= 1
 0 <= x168 <= 1
 0 <= x169 <= 1
 0 <= x170 <= 1
 0 <= x171 <= 1
 0 <= x172 <= 1
 0 <= x173 <= 1
 0 <= x174 <= 1
 0 <= x175 <= 1
 0 <= x176 <= 1
 0 <= x177 <= 1
 0 <= x178 <= 1
 0 <= x179 <= 1
 0 <= x180 <= 1
 0 <= x181 <= 1
 0 <= x182 <= 1
 0 <= x183 <= 1
 0 <= x184 <= 1
 0 <= x185 <= 1
 0 <= x186 <= 1
 0 <= x187 <= 1
 0 <= x188 <= 1
 0 <= x189 <= 1
 0 <= x190 <= 1
 0 <= x191 <= 1
 0 <= x192 <= 1
 0 <= x193 <= 1
 0 <= x194 <= 1
 0 <= x195 <= 1
 0 <= x196 <= 1
 0 <= x197 <= 1
 0 <= x198 <= 1
 0 <= x199 <= 1
 0 <= x200 <= 1
 0 <= x201 <= 1
 0 <= x202 <= 1
 0 <= x203 <= 1
 0 <= x204 <= 1
 0 <= x205 <= 1
 0 <= x206 <= 1
 0 <= x207 <= 1
 0 <= x208 <= 1
 0 <= x209 <= 1
 0 <= x210 <= 1
 0 <= x211 <= 1
 0 <= x212 <= 1
 0 <= x213 <= 1
 0 <= x214 <= 1
 0 <= x215 <= 1
 0 <= x216 <= 1
 0 <= x217 <= 1
 0 <= x218 <= 1
 0 <= x219 <= 1
 0 <= x220 <= 1
 0 <= x221 <= 1
 0 <= x222 <= 1
 0 <= x223 <= 1
 0 <= x224 <= 1
 0 <= x225 <= 1
 0 <= x226 <= 1
 0 <= x227 <= 1
 0 <= x228 <= 1
 0 <= x229 <= 1
 0 <= x230 <= 1
 0 <= x231 <= 1
 0 <= x232 <= 1
 0 <= x233 <= 1
 0 <= x234 <= 1
 0 <= x235 <= 1
 0 <= x236 <= 1
 0 <= x237 <= 1
 0 <= x238 <= 1
 0 <= x239 <= 1
 0 <= x240 <= 1
 0 <= x241 <= 1
 0 <= x242 <= 1
 0 <= x243 <= 1
 0 <= x244 <= 1
 0 <= x245 <= 1
 0 <= x246 <= 1
 0 <= x247 <= 1
 0 <= x248 <= 1
 0 <= x249 <= 1
 0 <= x250 <= 1
 0 <= x251 <= 1
 0 <= x252 <= 1
 0 <= x253 <= 1
 0 <= x254 <= 1
 0 <= x255 <= 1
 0 <= x256 <= 1
 0 <= x257 <= 1
 0 <= x258 <= 1
 0 <= x259 <= 1
 0 <= x260 <= 1
 0 <= x261 <= 1
 0 <= x262 <= 1
 0 <= x263 <= 1
 0 <= x264 <= 1
 0 <= x265 <= 1
 0 <= x266 <= 1
 0 <= x267 <= 1
 0 <= x268 <= 1
 0 <= x269 <= 1
 0 <= x270 <= 1
 0 <= x271 <= 1
 0 <= x272 <= 1
 0 <= x273 <= 1
 0 <= x274 <= 1
 0 <= x275 <= 1
 0 <= x276 <= 1
 0 <= x277 <= 1
 0 <= x278 <= 1
 0 <= x279 <= 1
 0 <= x280 <= 1
 0 <= x281 <= 1
 0 <= x282 <= 1
 0 <= x283 <= 1
 0 <= x284 <= 1
 0 <= x285 <= 1
 0 <= x286 <= 1
 0 <= x287 <= 1
 0 <= x288 <= 1
 0 <= x289 <= 1
 0 <= x290 <= 1
 0 <= x291 <= 1
 0 <= x292 <= 1
 0 <= x293 <= 1
 0 <= x294 <= 1
 0 <= x295 <= 1
 0 <= x296 <= 1
 0 <= x297 <= 1
 0 <= x298 <= 1
 0 <= x299 <= 1
 0 <= x300 <= 1
 0 <= x301 <= 1
 0 <= x302 <= 1
 0 <= x303 <= 1
 0 <= x304 <= 1
 0 <= x305 <= 1
 0 <= x306 <= 1
 0 <= x307 <= 1
 0 <= x308 <= 1
 0 <= x309 <= 1
 0 <= x310 <= 1
 0 <= x311 <= 1
 0 <= x312 <= 1
 0 <= x313 <= 1
 0 <= x314 <= 1
 0 <= x315 <= 1
 0 <= x316 <= 1
 0 <= x317 <= 1
 0 <= x318 <= 1
 0 <= x319 <= 1
 0 <= x320 <= 1
 0 <= x321 <= 1
 0 <= x322 <= 1
 0 <= x323 <= 1
 0 <= x324 <= 1
 0 <= x325 <= 1
 0 <= x326 <= 1
 0 <= x327 <= 1
 0 <= x328 <= 1
 0 <= x329 <= 1
 0 <= x330 <= 1
 0 <= x331 <= 1
 0 <= x332 <= 1
 0 <= x333 <= 1
 0 <= x334 <= 1
 0 <= x335 <= 1
 0 <= x336 <= 1
 0 <= x337 <= 1
 0 <= x338 <= 1
 0 <= x339 <= 1
 0 <= x340 <= 1
 0 <= x341 <= 1
 0 <= x342 <= 1
 0 <= x343 <= 1
 0 <= x344 <= 1
 0 <= x345 <= 1
 0 <= x346 <= 1
 0 <= x347 <= 1
 0 <= x348 <= 1
 0 <= x349 <= 1
 0 <= x350 <= 1
 0 <= x351 <= 1
 0 <= x352 <= 1
 0 <= x353 <= 1
 0 <= x354 <= 1
 0 <= x355 <= 1
 0 <= x356 <= 1
 0 <= x357 <= 1
 0 <= x358 <= 1
 0 <= x359 <= 1
 0 <= x360 <= 1
 0 <= x361 <= 1
 0 <= x362 <= 1
 0 <= x363 <= 1
 0 <= x364 <= 1
 0 <= x365 <= 1
 0 <= x366 <= 1
 0 <= x367 <= 1
 0 <= x368 <= 1
 0 <= x369 <= 1
 0 <= x370 <= 1
 0 <= x371 <= 1
 0 <= x372 <= 1
 0 <= x373 <= 1
 0 <= x374 <= 1
 0 <= x375 <= 1
 0 <= x376 <= 1
 0 <= x377 <= 1
 0 <= x378 <= 1
 0 <= x379 <= 1
 0 <= x380 <= 1
 0 <= x381 <= 1
 0 <= x382 <= 1
 0 <= x383 <= 1
 0 <= x384 <= 1
 0 <= x385 <= 1
 0 <= x386 <= 1
 0 <= x387 <= 1
 0 <= x388 <= 1
 0 <= x389 <= 1
 0 <= x390 <= 1
 0 <= x391 <= 1
 0 <= x392 <= 1
 0 <= x393 <= 1
 0 <= x394 <= 1
 0 <= x395 <= 1
 0 <= x396 <= 1
 0 <= x397 <= 1
 0 <= x398 <= 1
 0 <= x399 <= 1
 0 <= x400 <= 1
 0 <= x401 <= 1
 0 <= x402 <= 1
 0 <= x403 <= 1
 0 <= x404 <= 1
 0 <= x405 <= 1
 0 <= x406 <= 1
 0 <= x407 <= 1
 0 <= x408 <= 1
 0 <= x409 <= 1
 0 <= x410 <= 1
 0 <= x411 <= 1
 0 <= x412 <= 1
 0 <= x413 <= 1
 0 <= x414 <= 1
 0 <= x415 <= 1
 0 <= x416 <= 1
 0 <= x417 <= 1
 0 <= x418 <= 1
 0 <= x419 <= 1
 0 <= x420 <= 1
 0 <= x421 <= 1
 0 <= x422 <= 1
 0 <= x423 <= 1
 0 <= x424 <= 1
 0 <= x425 <= 1
 0 <= x426 <= 1
 0 <= x427 <= 1
 0 <= x428 <= 1
 0 <= x429 <= 1
 0 <= x430 <= 1
 0 <= x431 <= 1
 0 <= x432 <= 1
 0 <= x433 <= 1
 0 <= x434 <= 1
 0 <= x435 <= 1
 0 <= x436 <= 1
 0 <= x437 <= 1
 0 <= x438 <= 1
 0 <= x439 <= 1
 0 <= x440 <= 1
 0 <= x441 <= 1
 0 <= x442 <= 1
 0 <= x443 <= 1
 0 <= x444 <= 1
 0 <= x445 <= 1
 0 <= x446 <= 1
 0 <= x447 <= 1
 0 <= x448 <= 1
 0 <= x449 <= 1
 0 <= x450 <= 1
 0 <= x451 <= 1
 0 <= x452 <= 1
 0 <= x453 <= 1
 0 <= x454 <= 1
 0 <= x455 <= 1
 0 <= x456 <= 1
 0 <= x457 <= 1
 0 <= x458 <= 1
 0 <= x459 <= 1
 0 <= x460 <= 1
 0 <= x461 <= 1
 0 <= x462 <= 1
 0 <= x463 <= 1
 0 <= x464 <= 1
 0 <= x465 <= 1
 0 <= x466 <= 1
 0 <= x467 <= 1
 0 <= x468 <= 1
 0 <= x469 <= 1
 0 <= x470 <= 1
 0 <= x471 <= 1
 0 <= x472 <= 1
 0 <= x473 <= 1
 0 <= x474 <= 1
 0 <= x475 <= 1
 0 <= x476 <= 1
 0 <= x477 <= 1
 0 <= x478 <= 1
 0 <= x479 <= 1
 0 <= x480 <= 1
 0 <= x481 <= 1
 0 <= x482 <= 1
 0 <= x483 <= 1
 0 <= x484 <= 1
 0 <= x485 <= 1
 0 <= x486 <= 1
 0 <= x487 <= 1
 0 <= x488 <= 1
 0 <= x489 <= 1
 0 <= x490 <= 1
 0 <= x491 <= 1
 0 <= x492 <= 1
 0 <= x493 <= 1
 0 <= x494 <= 1
 0 <= x495 <= 1
 0 <= x496 <= 1
 0 <= x497 <= 1
 0 <= x498 <= 1
 0 <= x499 <= 1
 0 <= x500 <= 1
 0 <= x501 <= 1
 0 <= x502 <= 1
 0 <= x503 <= 1
 0 <= x504 <= 1
 0 <= x505 <= 1
 0 <= x506 <= 1
 0 <= x507 <= 1
 0 <= x508 <= 1
 0 <= x509 <= 1
 0 <= x510 <= 1
 0 <= x511 <= 1
 0 <= x512 <= 1
 0 <= x513 <= 1
 0 <= x514 <= 1
 0 <= x515 <= 1
 0 <= x516 <= 1
 0 <= x517 <= 1
 0 <= x518 <= 1
 0 <= x519 <= 1
 0 <= x520 <= 1
 0 <= x521 <= 1
 0 <= x522 <= 1
 0 <= x523 <= 1
 0 <= x524 <= 1
 0 <= x525 <= 1
 0 <= x526 <= 1
 0 <= x527 <= 1
 0 <= x528 <= 1
 0 <= x529 <= 1
 0 <= x530 <= 1
 0 <= x531 <= 1
 0 <= x532 <= 1
 0 <= x533 <= 1
 0 <= x534 <= 1
 0 <= x535 <= 1
 0 <= x536 <= 1
 0 <= x537 <= 1
 0 <= x538 <= 1
 0 <= x539 <= 1
 0 <= x540 <= 1
 0 <= x541 <= 1
 0 <= x542 <= 1
 0 <= x543 <= 1
 0 <= x544 <= 1
 0 <= x545 <= 1
 0 <= x546 <= 1
 0 <= x547 <= 1
 0 <= x548 <= 1
 0 <= x549 <= 1
 0 <= x550 <= 1
Binaries
 x501  x502  x503  x504  x505  x506  x507  x508  x509  x510  x511  x512  x513 
 x514  x515  x516  x517  x518  x519  x520  x521  x522  x523  x524  x525  x526 
 x527  x528  x529  x530  x531  x532  x533  x534  x535  x536  x537  x538  x539 
 x540  x541  x542  x543  x544  x545  x546  x547  x548  x549  x550 
End
